c FILE: large1.graph
c
c SOURCE: DAP2
c
p edge 100 3464
e 26 88
e 26 84
e 26 85
e 26 11
e 26 46
e 26 62
e 26 28
e 26 36
e 26 18
e 26 92
e 26 60
e 26 41
e 26 55
e 26 83
e 26 49
e 26 47
e 26 59
e 26 45
e 26 38
e 26 10
e 26 12
e 26 99
e 26 54
e 26 69
e 26 68
e 26 25
e 26 72
e 26 22
e 26 35
e 26 81
e 26 40
e 26 24
e 26 87
e 26 96
e 26 31
e 26 39
e 26 79
e 26 65
e 26 16
e 26 93
e 26 56
e 26 82
e 26 77
e 26 4
e 26 5
e 26 66
e 26 3
e 26 52
e 26 7
e 26 1
e 26 6
e 26 67
e 26 80
e 26 33
e 26 50
e 26 98
e 26 9
e 26 91
e 26 61
e 26 20
e 26 95
e 26 30
e 26 94
e 26 37
e 26 19
e 26 71
e 26 48
e 26 23
e 26 57
e 88 85
e 88 11
e 88 46
e 88 73
e 88 28
e 88 36
e 88 18
e 88 92
e 88 60
e 88 41
e 88 55
e 88 47
e 88 59
e 88 45
e 88 70
e 88 38
e 88 15
e 88 10
e 88 89
e 88 99
e 88 69
e 88 43
e 88 68
e 88 63
e 88 25
e 88 22
e 88 40
e 88 86
e 88 51
e 88 27
e 88 87
e 88 96
e 88 64
e 88 0
e 88 13
e 88 31
e 88 39
e 88 14
e 88 79
e 88 65
e 88 16
e 88 93
e 88 42
e 88 56
e 88 58
e 88 4
e 88 5
e 88 66
e 88 3
e 88 52
e 88 78
e 88 7
e 88 1
e 88 74
e 88 67
e 88 80
e 88 50
e 88 9
e 88 29
e 88 91
e 88 61
e 88 20
e 88 53
e 88 32
e 88 95
e 88 30
e 88 94
e 88 37
e 88 75
e 88 19
e 88 71
e 88 23
e 88 57
e 84 46
e 84 62
e 84 73
e 84 28
e 84 36
e 84 18
e 84 92
e 84 60
e 84 76
e 84 41
e 84 2
e 84 17
e 84 55
e 84 47
e 84 59
e 84 70
e 84 10
e 84 99
e 84 54
e 84 69
e 84 43
e 84 68
e 84 63
e 84 72
e 84 35
e 84 81
e 84 40
e 84 34
e 84 24
e 84 27
e 84 87
e 84 96
e 84 8
e 84 13
e 84 14
e 84 79
e 84 44
e 84 65
e 84 93
e 84 56
e 84 82
e 84 21
e 84 4
e 84 5
e 84 66
e 84 90
e 84 97
e 84 78
e 84 7
e 84 1
e 84 6
e 84 74
e 84 67
e 84 80
e 84 33
e 84 50
e 84 9
e 84 29
e 84 91
e 84 61
e 84 20
e 84 53
e 84 32
e 84 95
e 84 30
e 84 94
e 84 37
e 84 75
e 84 48
e 84 23
e 84 57
e 85 11
e 85 62
e 85 73
e 85 36
e 85 92
e 85 60
e 85 76
e 85 41
e 85 2
e 85 17
e 85 55
e 85 49
e 85 47
e 85 59
e 85 45
e 85 70
e 85 38
e 85 15
e 85 12
e 85 99
e 85 43
e 85 68
e 85 63
e 85 25
e 85 72
e 85 22
e 85 81
e 85 86
e 85 34
e 85 24
e 85 87
e 85 96
e 85 8
e 85 64
e 85 0
e 85 31
e 85 39
e 85 14
e 85 79
e 85 44
e 85 65
e 85 16
e 85 93
e 85 42
e 85 56
e 85 82
e 85 77
e 85 21
e 85 58
e 85 4
e 85 5
e 85 66
e 85 90
e 85 52
e 85 7
e 85 6
e 85 74
e 85 67
e 85 33
e 85 50
e 85 9
e 85 91
e 85 53
e 85 32
e 85 94
e 85 75
e 85 48
e 85 57
e 11 62
e 11 73
e 11 28
e 11 36
e 11 92
e 11 60
e 11 76
e 11 41
e 11 17
e 11 55
e 11 83
e 11 49
e 11 59
e 11 45
e 11 70
e 11 38
e 11 15
e 11 10
e 11 12
e 11 89
e 11 69
e 11 43
e 11 63
e 11 25
e 11 72
e 11 35
e 11 81
e 11 40
e 11 86
e 11 51
e 11 34
e 11 87
e 11 96
e 11 8
e 11 64
e 11 14
e 11 79
e 11 44
e 11 65
e 11 93
e 11 42
e 11 77
e 11 58
e 11 4
e 11 5
e 11 66
e 11 90
e 11 1
e 11 6
e 11 74
e 11 80
e 11 33
e 11 98
e 11 9
e 11 29
e 11 91
e 11 20
e 11 32
e 11 95
e 11 30
e 11 75
e 11 19
e 11 48
e 11 23
e 11 57
e 46 28
e 46 36
e 46 18
e 46 92
e 46 60
e 46 76
e 46 41
e 46 2
e 46 17
e 46 55
e 46 49
e 46 47
e 46 59
e 46 70
e 46 38
e 46 10
e 46 12
e 46 89
e 46 99
e 46 54
e 46 69
e 46 43
e 46 68
e 46 63
e 46 72
e 46 22
e 46 35
e 46 81
e 46 40
e 46 86
e 46 51
e 46 34
e 46 24
e 46 27
e 46 87
e 46 96
e 46 8
e 46 64
e 46 13
e 46 39
e 46 14
e 46 79
e 46 44
e 46 65
e 46 16
e 46 42
e 46 82
e 46 21
e 46 4
e 46 5
e 46 90
e 46 97
e 46 3
e 46 78
e 46 7
e 46 1
e 46 74
e 46 67
e 46 33
e 46 50
e 46 98
e 46 9
e 46 53
e 46 30
e 46 94
e 46 37
e 46 75
e 46 71
e 46 48
e 46 23
e 62 73
e 62 28
e 62 18
e 62 60
e 62 76
e 62 41
e 62 2
e 62 55
e 62 49
e 62 59
e 62 45
e 62 15
e 62 10
e 62 99
e 62 69
e 62 68
e 62 63
e 62 25
e 62 72
e 62 22
e 62 35
e 62 81
e 62 34
e 62 24
e 62 27
e 62 8
e 62 64
e 62 0
e 62 13
e 62 39
e 62 14
e 62 79
e 62 44
e 62 65
e 62 93
e 62 42
e 62 56
e 62 82
e 62 77
e 62 97
e 62 3
e 62 52
e 62 78
e 62 1
e 62 74
e 62 80
e 62 33
e 62 98
e 62 9
e 62 29
e 62 20
e 62 53
e 62 32
e 62 95
e 62 37
e 62 19
e 62 23
e 62 57
e 73 36
e 73 18
e 73 92
e 73 76
e 73 17
e 73 83
e 73 49
e 73 59
e 73 45
e 73 70
e 73 15
e 73 12
e 73 89
e 73 99
e 73 43
e 73 68
e 73 63
e 73 25
e 73 72
e 73 22
e 73 35
e 73 81
e 73 40
e 73 86
e 73 27
e 73 87
e 73 64
e 73 39
e 73 14
e 73 79
e 73 44
e 73 65
e 73 93
e 73 42
e 73 56
e 73 77
e 73 21
e 73 4
e 73 5
e 73 90
e 73 52
e 73 78
e 73 7
e 73 1
e 73 74
e 73 67
e 73 80
e 73 33
e 73 50
e 73 98
e 73 9
e 73 29
e 73 91
e 73 61
e 73 20
e 73 53
e 73 32
e 73 95
e 73 30
e 73 94
e 73 75
e 73 19
e 73 48
e 73 57
e 28 36
e 28 18
e 28 60
e 28 17
e 28 83
e 28 49
e 28 47
e 28 59
e 28 70
e 28 38
e 28 15
e 28 12
e 28 89
e 28 99
e 28 54
e 28 69
e 28 68
e 28 22
e 28 35
e 28 81
e 28 40
e 28 51
e 28 34
e 28 24
e 28 27
e 28 8
e 28 64
e 28 0
e 28 13
e 28 31
e 28 39
e 28 44
e 28 16
e 28 93
e 28 56
e 28 21
e 28 58
e 28 4
e 28 5
e 28 66
e 28 90
e 28 3
e 28 78
e 28 7
e 28 6
e 28 67
e 28 80
e 28 50
e 28 9
e 28 29
e 28 61
e 28 20
e 28 53
e 28 32
e 28 95
e 28 30
e 28 94
e 28 37
e 28 71
e 28 48
e 28 57
e 36 18
e 36 60
e 36 76
e 36 41
e 36 2
e 36 17
e 36 55
e 36 47
e 36 59
e 36 45
e 36 70
e 36 10
e 36 12
e 36 89
e 36 99
e 36 54
e 36 68
e 36 63
e 36 25
e 36 72
e 36 22
e 36 35
e 36 81
e 36 34
e 36 27
e 36 87
e 36 96
e 36 8
e 36 64
e 36 0
e 36 13
e 36 31
e 36 39
e 36 14
e 36 79
e 36 65
e 36 93
e 36 42
e 36 82
e 36 21
e 36 58
e 36 4
e 36 5
e 36 90
e 36 97
e 36 3
e 36 52
e 36 7
e 36 6
e 36 74
e 36 67
e 36 80
e 36 50
e 36 98
e 36 9
e 36 61
e 36 20
e 36 53
e 36 30
e 36 75
e 36 19
e 36 71
e 36 48
e 36 57
e 18 92
e 18 60
e 18 76
e 18 41
e 18 2
e 18 17
e 18 55
e 18 83
e 18 49
e 18 47
e 18 59
e 18 70
e 18 38
e 18 15
e 18 10
e 18 12
e 18 99
e 18 69
e 18 43
e 18 25
e 18 72
e 18 35
e 18 81
e 18 40
e 18 86
e 18 51
e 18 34
e 18 24
e 18 87
e 18 8
e 18 64
e 18 0
e 18 13
e 18 31
e 18 14
e 18 79
e 18 44
e 18 65
e 18 16
e 18 42
e 18 82
e 18 21
e 18 4
e 18 5
e 18 90
e 18 52
e 18 78
e 18 7
e 18 1
e 18 74
e 18 67
e 18 33
e 18 50
e 18 98
e 18 9
e 18 29
e 18 91
e 18 61
e 18 20
e 18 53
e 18 32
e 18 75
e 18 19
e 18 71
e 18 48
e 18 23
e 18 57
e 92 60
e 92 76
e 92 41
e 92 2
e 92 17
e 92 55
e 92 83
e 92 49
e 92 45
e 92 70
e 92 38
e 92 15
e 92 12
e 92 89
e 92 99
e 92 54
e 92 69
e 92 43
e 92 25
e 92 72
e 92 35
e 92 81
e 92 40
e 92 51
e 92 24
e 92 87
e 92 64
e 92 0
e 92 13
e 92 39
e 92 14
e 92 79
e 92 65
e 92 16
e 92 93
e 92 42
e 92 56
e 92 77
e 92 21
e 92 58
e 92 4
e 92 66
e 92 90
e 92 97
e 92 52
e 92 7
e 92 6
e 92 67
e 92 80
e 92 33
e 92 50
e 92 98
e 92 9
e 92 20
e 92 53
e 92 32
e 92 94
e 92 19
e 60 76
e 60 2
e 60 17
e 60 83
e 60 49
e 60 59
e 60 45
e 60 15
e 60 10
e 60 12
e 60 89
e 60 99
e 60 43
e 60 25
e 60 72
e 60 22
e 60 35
e 60 81
e 60 86
e 60 51
e 60 34
e 60 27
e 60 87
e 60 8
e 60 64
e 60 0
e 60 13
e 60 31
e 60 39
e 60 14
e 60 44
e 60 16
e 60 93
e 60 56
e 60 82
e 60 77
e 60 21
e 60 5
e 60 90
e 60 3
e 60 78
e 60 7
e 60 1
e 60 6
e 60 67
e 60 80
e 60 33
e 60 98
e 60 91
e 60 20
e 60 32
e 60 95
e 60 30
e 60 37
e 60 75
e 60 19
e 60 71
e 60 48
e 60 23
e 60 57
e 76 41
e 76 2
e 76 17
e 76 49
e 76 47
e 76 59
e 76 45
e 76 38
e 76 15
e 76 10
e 76 12
e 76 89
e 76 99
e 76 54
e 76 68
e 76 25
e 76 72
e 76 35
e 76 86
e 76 51
e 76 24
e 76 27
e 76 8
e 76 0
e 76 13
e 76 14
e 76 65
e 76 16
e 76 56
e 76 82
e 76 77
e 76 21
e 76 58
e 76 4
e 76 90
e 76 97
e 76 3
e 76 52
e 76 7
e 76 1
e 76 6
e 76 74
e 76 67
e 76 80
e 76 50
e 76 98
e 76 9
e 76 29
e 76 91
e 76 20
e 76 53
e 76 32
e 76 95
e 76 30
e 76 94
e 76 37
e 76 75
e 76 19
e 76 71
e 76 48
e 76 57
e 41 83
e 41 49
e 41 47
e 41 59
e 41 45
e 41 70
e 41 38
e 41 15
e 41 10
e 41 89
e 41 99
e 41 43
e 41 68
e 41 63
e 41 40
e 41 86
e 41 51
e 41 34
e 41 96
e 41 8
e 41 0
e 41 13
e 41 31
e 41 39
e 41 14
e 41 79
e 41 44
e 41 16
e 41 93
e 41 42
e 41 56
e 41 82
e 41 77
e 41 58
e 41 5
e 41 66
e 41 90
e 41 97
e 41 3
e 41 52
e 41 1
e 41 74
e 41 80
e 41 98
e 41 9
e 41 61
e 41 20
e 41 95
e 41 30
e 41 94
e 41 75
e 41 71
e 41 48
e 41 23
e 41 57
e 2 17
e 2 55
e 2 83
e 2 47
e 2 59
e 2 45
e 2 70
e 2 38
e 2 15
e 2 12
e 2 89
e 2 99
e 2 54
e 2 68
e 2 63
e 2 25
e 2 22
e 2 81
e 2 51
e 2 34
e 2 24
e 2 87
e 2 96
e 2 64
e 2 13
e 2 31
e 2 39
e 2 14
e 2 44
e 2 16
e 2 93
e 2 42
e 2 56
e 2 82
e 2 77
e 2 21
e 2 58
e 2 5
e 2 66
e 2 97
e 2 3
e 2 7
e 2 1
e 2 6
e 2 74
e 2 67
e 2 80
e 2 33
e 2 98
e 2 9
e 2 29
e 2 91
e 2 61
e 2 20
e 2 32
e 2 95
e 2 30
e 2 94
e 2 37
e 2 75
e 2 71
e 2 48
e 2 23
e 17 55
e 17 83
e 17 59
e 17 45
e 17 70
e 17 38
e 17 10
e 17 89
e 17 54
e 17 69
e 17 43
e 17 68
e 17 63
e 17 72
e 17 35
e 17 81
e 17 40
e 17 34
e 17 24
e 17 27
e 17 87
e 17 96
e 17 8
e 17 64
e 17 0
e 17 13
e 17 31
e 17 39
e 17 14
e 17 79
e 17 44
e 17 65
e 17 16
e 17 42
e 17 56
e 17 82
e 17 77
e 17 21
e 17 58
e 17 4
e 17 5
e 17 66
e 17 90
e 17 97
e 17 3
e 17 52
e 17 78
e 17 7
e 17 1
e 17 67
e 17 80
e 17 33
e 17 50
e 17 98
e 17 9
e 17 91
e 17 61
e 17 20
e 17 53
e 17 32
e 17 95
e 17 30
e 17 94
e 17 37
e 17 75
e 17 19
e 17 71
e 17 48
e 17 23
e 17 57
e 55 49
e 55 47
e 55 45
e 55 38
e 55 12
e 55 89
e 55 99
e 55 54
e 55 69
e 55 43
e 55 68
e 55 72
e 55 22
e 55 81
e 55 40
e 55 86
e 55 24
e 55 27
e 55 87
e 55 96
e 55 8
e 55 64
e 55 0
e 55 31
e 55 39
e 55 14
e 55 44
e 55 65
e 55 93
e 55 42
e 55 56
e 55 77
e 55 21
e 55 5
e 55 66
e 55 90
e 55 3
e 55 52
e 55 78
e 55 1
e 55 6
e 55 67
e 55 80
e 55 33
e 55 50
e 55 98
e 55 9
e 55 29
e 55 91
e 55 61
e 55 20
e 55 53
e 55 95
e 55 30
e 55 37
e 55 23
e 83 49
e 83 47
e 83 59
e 83 70
e 83 15
e 83 12
e 83 89
e 83 99
e 83 54
e 83 69
e 83 43
e 83 63
e 83 25
e 83 72
e 83 22
e 83 35
e 83 40
e 83 51
e 83 34
e 83 24
e 83 87
e 83 64
e 83 0
e 83 13
e 83 31
e 83 14
e 83 79
e 83 44
e 83 65
e 83 16
e 83 42
e 83 56
e 83 82
e 83 77
e 83 21
e 83 58
e 83 4
e 83 90
e 83 97
e 83 3
e 83 52
e 83 78
e 83 7
e 83 1
e 83 6
e 83 74
e 83 67
e 83 80
e 83 33
e 83 98
e 83 9
e 83 61
e 83 20
e 83 53
e 83 32
e 83 95
e 83 30
e 83 94
e 83 75
e 83 19
e 83 71
e 83 48
e 83 57
e 49 47
e 49 45
e 49 70
e 49 38
e 49 15
e 49 10
e 49 12
e 49 89
e 49 99
e 49 54
e 49 69
e 49 43
e 49 68
e 49 63
e 49 25
e 49 22
e 49 35
e 49 40
e 49 86
e 49 51
e 49 34
e 49 24
e 49 27
e 49 96
e 49 8
e 49 64
e 49 0
e 49 13
e 49 31
e 49 39
e 49 14
e 49 79
e 49 44
e 49 65
e 49 93
e 49 42
e 49 56
e 49 82
e 49 77
e 49 21
e 49 58
e 49 5
e 49 66
e 49 90
e 49 97
e 49 52
e 49 7
e 49 1
e 49 74
e 49 33
e 49 50
e 49 9
e 49 29
e 49 20
e 49 53
e 49 94
e 49 37
e 49 75
e 49 71
e 47 59
e 47 45
e 47 70
e 47 38
e 47 12
e 47 89
e 47 69
e 47 68
e 47 63
e 47 25
e 47 22
e 47 81
e 47 40
e 47 86
e 47 51
e 47 34
e 47 24
e 47 27
e 47 8
e 47 0
e 47 13
e 47 31
e 47 39
e 47 14
e 47 44
e 47 65
e 47 16
e 47 93
e 47 77
e 47 21
e 47 4
e 47 5
e 47 66
e 47 97
e 47 52
e 47 78
e 47 7
e 47 1
e 47 6
e 47 74
e 47 67
e 47 80
e 47 33
e 47 50
e 47 9
e 47 20
e 47 53
e 47 32
e 47 94
e 47 19
e 47 48
e 47 23
e 47 57
e 59 45
e 59 70
e 59 38
e 59 15
e 59 10
e 59 89
e 59 99
e 59 54
e 59 69
e 59 43
e 59 68
e 59 63
e 59 72
e 59 22
e 59 81
e 59 40
e 59 86
e 59 51
e 59 27
e 59 96
e 59 8
e 59 64
e 59 0
e 59 13
e 59 31
e 59 39
e 59 14
e 59 79
e 59 44
e 59 65
e 59 93
e 59 42
e 59 56
e 59 82
e 59 21
e 59 4
e 59 5
e 59 66
e 59 90
e 59 97
e 59 3
e 59 52
e 59 7
e 59 6
e 59 74
e 59 67
e 59 80
e 59 33
e 59 50
e 59 98
e 59 9
e 59 29
e 59 91
e 59 61
e 59 20
e 59 53
e 59 95
e 59 30
e 59 94
e 59 37
e 59 75
e 59 19
e 59 71
e 59 48
e 59 23
e 45 70
e 45 15
e 45 10
e 45 12
e 45 99
e 45 69
e 45 63
e 45 25
e 45 22
e 45 35
e 45 81
e 45 86
e 45 51
e 45 27
e 45 87
e 45 96
e 45 8
e 45 64
e 45 0
e 45 13
e 45 31
e 45 14
e 45 79
e 45 44
e 45 65
e 45 16
e 45 93
e 45 42
e 45 56
e 45 21
e 45 58
e 45 66
e 45 3
e 45 52
e 45 78
e 45 7
e 45 1
e 45 6
e 45 33
e 45 98
e 45 91
e 45 61
e 45 53
e 45 32
e 45 95
e 45 30
e 45 94
e 45 37
e 45 75
e 45 19
e 45 71
e 45 48
e 45 23
e 70 38
e 70 15
e 70 10
e 70 12
e 70 89
e 70 54
e 70 69
e 70 43
e 70 63
e 70 25
e 70 35
e 70 81
e 70 40
e 70 34
e 70 24
e 70 96
e 70 8
e 70 64
e 70 0
e 70 13
e 70 31
e 70 39
e 70 79
e 70 65
e 70 16
e 70 93
e 70 42
e 70 82
e 70 77
e 70 21
e 70 4
e 70 5
e 70 66
e 70 90
e 70 3
e 70 52
e 70 7
e 70 6
e 70 74
e 70 67
e 70 80
e 70 33
e 70 50
e 70 9
e 70 29
e 70 91
e 70 61
e 70 20
e 70 53
e 70 30
e 70 94
e 70 37
e 70 19
e 70 71
e 70 23
e 38 15
e 38 89
e 38 99
e 38 69
e 38 43
e 38 68
e 38 63
e 38 25
e 38 35
e 38 81
e 38 86
e 38 51
e 38 24
e 38 27
e 38 87
e 38 96
e 38 0
e 38 31
e 38 39
e 38 14
e 38 79
e 38 44
e 38 16
e 38 93
e 38 42
e 38 56
e 38 82
e 38 77
e 38 21
e 38 4
e 38 5
e 38 3
e 38 52
e 38 78
e 38 7
e 38 1
e 38 6
e 38 50
e 38 98
e 38 29
e 38 61
e 38 20
e 38 32
e 38 30
e 38 94
e 38 75
e 38 57
e 15 12
e 15 89
e 15 25
e 15 72
e 15 22
e 15 35
e 15 81
e 15 40
e 15 51
e 15 34
e 15 27
e 15 87
e 15 96
e 15 64
e 15 13
e 15 31
e 15 14
e 15 79
e 15 65
e 15 16
e 15 42
e 15 77
e 15 4
e 15 5
e 15 66
e 15 97
e 15 52
e 15 78
e 15 7
e 15 80
e 15 33
e 15 98
e 15 9
e 15 29
e 15 91
e 15 20
e 15 32
e 15 95
e 15 30
e 15 94
e 15 37
e 15 75
e 15 19
e 15 57
e 10 99
e 10 54
e 10 43
e 10 25
e 10 72
e 10 22
e 10 35
e 10 40
e 10 86
e 10 51
e 10 24
e 10 87
e 10 8
e 10 64
e 10 0
e 10 13
e 10 31
e 10 39
e 10 79
e 10 44
e 10 16
e 10 93
e 10 42
e 10 82
e 10 77
e 10 21
e 10 4
e 10 5
e 10 66
e 10 90
e 10 97
e 10 3
e 10 52
e 10 78
e 10 7
e 10 1
e 10 6
e 10 74
e 10 50
e 10 98
e 10 9
e 10 20
e 10 95
e 10 30
e 10 37
e 10 75
e 10 19
e 10 48
e 10 23
e 10 57
e 12 89
e 12 99
e 12 69
e 12 43
e 12 68
e 12 63
e 12 25
e 12 22
e 12 81
e 12 40
e 12 86
e 12 51
e 12 34
e 12 27
e 12 87
e 12 8
e 12 0
e 12 13
e 12 39
e 12 14
e 12 79
e 12 44
e 12 16
e 12 93
e 12 56
e 12 82
e 12 77
e 12 21
e 12 58
e 12 4
e 12 5
e 12 66
e 12 90
e 12 97
e 12 3
e 12 52
e 12 78
e 12 1
e 12 6
e 12 67
e 12 80
e 12 33
e 12 50
e 12 9
e 12 29
e 12 91
e 12 20
e 12 53
e 12 32
e 12 95
e 12 94
e 12 37
e 12 75
e 12 19
e 12 71
e 12 48
e 12 23
e 12 57
e 89 99
e 89 54
e 89 69
e 89 72
e 89 22
e 89 35
e 89 81
e 89 86
e 89 34
e 89 24
e 89 27
e 89 87
e 89 96
e 89 8
e 89 64
e 89 0
e 89 13
e 89 39
e 89 79
e 89 44
e 89 16
e 89 93
e 89 42
e 89 56
e 89 77
e 89 4
e 89 5
e 89 66
e 89 90
e 89 3
e 89 52
e 89 78
e 89 7
e 89 67
e 89 80
e 89 33
e 89 50
e 89 98
e 89 9
e 89 29
e 89 20
e 89 53
e 89 32
e 89 95
e 89 30
e 89 37
e 89 75
e 89 19
e 89 71
e 89 23
e 89 57
e 99 54
e 99 43
e 99 68
e 99 63
e 99 25
e 99 72
e 99 22
e 99 35
e 99 81
e 99 40
e 99 51
e 99 34
e 99 24
e 99 27
e 99 87
e 99 8
e 99 64
e 99 13
e 99 31
e 99 39
e 99 14
e 99 79
e 99 65
e 99 16
e 99 93
e 99 82
e 99 77
e 99 21
e 99 5
e 99 66
e 99 90
e 99 97
e 99 3
e 99 52
e 99 78
e 99 7
e 99 1
e 99 67
e 99 50
e 99 98
e 99 9
e 99 91
e 99 61
e 99 20
e 99 32
e 99 95
e 99 30
e 99 94
e 99 37
e 99 75
e 99 19
e 99 71
e 99 48
e 99 57
e 54 43
e 54 68
e 54 25
e 54 72
e 54 22
e 54 35
e 54 81
e 54 40
e 54 51
e 54 34
e 54 24
e 54 27
e 54 87
e 54 96
e 54 8
e 54 64
e 54 13
e 54 39
e 54 14
e 54 79
e 54 44
e 54 93
e 54 42
e 54 56
e 54 82
e 54 77
e 54 21
e 54 58
e 54 4
e 54 5
e 54 66
e 54 90
e 54 97
e 54 52
e 54 7
e 54 6
e 54 67
e 54 80
e 54 33
e 54 50
e 54 98
e 54 9
e 54 91
e 54 61
e 54 20
e 54 32
e 54 95
e 54 30
e 54 94
e 54 37
e 54 75
e 54 19
e 54 71
e 54 48
e 54 23
e 69 22
e 69 35
e 69 86
e 69 51
e 69 24
e 69 96
e 69 13
e 69 31
e 69 39
e 69 44
e 69 65
e 69 16
e 69 42
e 69 56
e 69 82
e 69 21
e 69 4
e 69 66
e 69 90
e 69 97
e 69 52
e 69 78
e 69 7
e 69 1
e 69 6
e 69 74
e 69 67
e 69 80
e 69 33
e 69 50
e 69 98
e 69 9
e 69 61
e 69 53
e 69 32
e 69 95
e 69 37
e 69 19
e 69 57
e 43 68
e 43 63
e 43 35
e 43 40
e 43 86
e 43 24
e 43 27
e 43 87
e 43 8
e 43 64
e 43 0
e 43 13
e 43 31
e 43 39
e 43 14
e 43 79
e 43 44
e 43 65
e 43 16
e 43 93
e 43 42
e 43 56
e 43 82
e 43 21
e 43 58
e 43 4
e 43 5
e 43 90
e 43 3
e 43 52
e 43 78
e 43 1
e 43 6
e 43 74
e 43 67
e 43 50
e 43 98
e 43 9
e 43 29
e 43 91
e 43 53
e 43 32
e 43 30
e 43 94
e 43 37
e 43 75
e 43 71
e 43 48
e 43 23
e 68 63
e 68 25
e 68 72
e 68 35
e 68 81
e 68 86
e 68 51
e 68 34
e 68 27
e 68 87
e 68 96
e 68 64
e 68 31
e 68 39
e 68 14
e 68 79
e 68 44
e 68 65
e 68 93
e 68 42
e 68 56
e 68 82
e 68 21
e 68 58
e 68 4
e 68 97
e 68 3
e 68 78
e 68 7
e 68 1
e 68 6
e 68 74
e 68 67
e 68 80
e 68 50
e 68 98
e 68 9
e 68 29
e 68 91
e 68 61
e 68 53
e 68 95
e 68 30
e 68 94
e 68 75
e 68 19
e 68 71
e 68 48
e 68 23
e 68 57
e 63 72
e 63 22
e 63 35
e 63 81
e 63 40
e 63 86
e 63 51
e 63 34
e 63 24
e 63 27
e 63 87
e 63 8
e 63 64
e 63 39
e 63 14
e 63 79
e 63 65
e 63 16
e 63 93
e 63 56
e 63 77
e 63 21
e 63 4
e 63 66
e 63 90
e 63 97
e 63 3
e 63 52
e 63 78
e 63 7
e 63 1
e 63 6
e 63 74
e 63 67
e 63 80
e 63 50
e 63 29
e 63 91
e 63 20
e 63 95
e 63 30
e 63 37
e 63 75
e 63 19
e 63 71
e 63 23
e 63 57
e 25 72
e 25 22
e 25 35
e 25 81
e 25 40
e 25 51
e 25 34
e 25 24
e 25 96
e 25 0
e 25 13
e 25 39
e 25 14
e 25 79
e 25 44
e 25 65
e 25 93
e 25 82
e 25 77
e 25 58
e 25 4
e 25 5
e 25 97
e 25 3
e 25 52
e 25 78
e 25 1
e 25 80
e 25 50
e 25 98
e 25 91
e 25 61
e 25 20
e 25 53
e 25 32
e 25 30
e 25 37
e 25 19
e 25 71
e 25 48
e 25 23
e 72 22
e 72 81
e 72 40
e 72 34
e 72 27
e 72 87
e 72 96
e 72 8
e 72 13
e 72 31
e 72 14
e 72 79
e 72 65
e 72 16
e 72 93
e 72 42
e 72 56
e 72 82
e 72 21
e 72 4
e 72 66
e 72 90
e 72 97
e 72 52
e 72 78
e 72 7
e 72 1
e 72 6
e 72 67
e 72 80
e 72 33
e 72 98
e 72 29
e 72 61
e 72 20
e 72 53
e 72 30
e 72 94
e 72 75
e 72 19
e 72 71
e 72 23
e 22 81
e 22 40
e 22 86
e 22 51
e 22 34
e 22 24
e 22 27
e 22 87
e 22 96
e 22 8
e 22 0
e 22 13
e 22 39
e 22 14
e 22 44
e 22 65
e 22 16
e 22 93
e 22 42
e 22 56
e 22 77
e 22 21
e 22 58
e 22 4
e 22 5
e 22 66
e 22 90
e 22 3
e 22 52
e 22 78
e 22 7
e 22 1
e 22 6
e 22 80
e 22 61
e 22 53
e 22 32
e 22 94
e 22 37
e 22 71
e 22 23
e 22 57
e 35 81
e 35 40
e 35 86
e 35 34
e 35 24
e 35 96
e 35 8
e 35 14
e 35 79
e 35 44
e 35 93
e 35 42
e 35 82
e 35 21
e 35 5
e 35 66
e 35 97
e 35 3
e 35 78
e 35 7
e 35 1
e 35 74
e 35 67
e 35 80
e 35 33
e 35 98
e 35 9
e 35 29
e 35 91
e 35 61
e 35 20
e 35 53
e 35 95
e 35 30
e 35 94
e 35 71
e 35 48
e 35 23
e 35 57
e 81 40
e 81 51
e 81 34
e 81 24
e 81 27
e 81 87
e 81 96
e 81 8
e 81 64
e 81 31
e 81 14
e 81 44
e 81 65
e 81 16
e 81 93
e 81 42
e 81 56
e 81 82
e 81 77
e 81 21
e 81 4
e 81 5
e 81 66
e 81 90
e 81 97
e 81 3
e 81 52
e 81 78
e 81 1
e 81 6
e 81 67
e 81 80
e 81 33
e 81 98
e 81 29
e 81 61
e 81 20
e 81 53
e 81 94
e 81 75
e 81 19
e 81 71
e 81 23
e 40 86
e 40 34
e 40 24
e 40 27
e 40 96
e 40 8
e 40 0
e 40 13
e 40 39
e 40 14
e 40 79
e 40 93
e 40 77
e 40 4
e 40 5
e 40 90
e 40 97
e 40 3
e 40 78
e 40 7
e 40 1
e 40 6
e 40 74
e 40 67
e 40 80
e 40 33
e 40 50
e 40 91
e 40 61
e 40 30
e 40 94
e 40 37
e 40 75
e 40 48
e 40 23
e 40 57
e 86 24
e 86 27
e 86 96
e 86 8
e 86 64
e 86 31
e 86 39
e 86 14
e 86 79
e 86 44
e 86 93
e 86 42
e 86 58
e 86 4
e 86 5
e 86 90
e 86 97
e 86 3
e 86 78
e 86 1
e 86 6
e 86 74
e 86 67
e 86 80
e 86 33
e 86 50
e 86 98
e 86 9
e 86 29
e 86 91
e 86 61
e 86 53
e 86 32
e 86 95
e 86 30
e 86 94
e 86 37
e 86 75
e 86 19
e 86 48
e 86 23
e 51 34
e 51 27
e 51 8
e 51 0
e 51 13
e 51 31
e 51 14
e 51 44
e 51 93
e 51 42
e 51 82
e 51 77
e 51 21
e 51 58
e 51 4
e 51 5
e 51 3
e 51 52
e 51 78
e 51 6
e 51 74
e 51 67
e 51 80
e 51 33
e 51 50
e 51 98
e 51 9
e 51 29
e 51 91
e 51 61
e 51 20
e 51 53
e 51 32
e 51 95
e 51 37
e 51 75
e 51 71
e 51 23
e 51 57
e 34 24
e 34 27
e 34 8
e 34 31
e 34 39
e 34 79
e 34 44
e 34 65
e 34 16
e 34 42
e 34 56
e 34 82
e 34 77
e 34 21
e 34 58
e 34 4
e 34 5
e 34 66
e 34 90
e 34 97
e 34 3
e 34 52
e 34 78
e 34 1
e 34 6
e 34 74
e 34 67
e 34 33
e 34 50
e 34 9
e 34 91
e 34 61
e 34 20
e 34 95
e 34 94
e 34 37
e 34 75
e 34 19
e 34 71
e 34 48
e 34 57
e 24 27
e 24 87
e 24 96
e 24 8
e 24 64
e 24 39
e 24 14
e 24 79
e 24 44
e 24 93
e 24 42
e 24 82
e 24 77
e 24 21
e 24 58
e 24 4
e 24 5
e 24 66
e 24 90
e 24 97
e 24 52
e 24 7
e 24 1
e 24 6
e 24 80
e 24 9
e 24 91
e 24 61
e 24 20
e 24 53
e 24 32
e 24 95
e 24 75
e 24 71
e 24 48
e 24 23
e 24 57
e 27 87
e 27 96
e 27 64
e 27 0
e 27 31
e 27 39
e 27 14
e 27 79
e 27 44
e 27 65
e 27 16
e 27 93
e 27 42
e 27 56
e 27 82
e 27 58
e 27 5
e 27 66
e 27 90
e 27 97
e 27 3
e 27 78
e 27 7
e 27 6
e 27 80
e 27 50
e 27 9
e 27 29
e 27 91
e 27 32
e 27 95
e 27 30
e 27 37
e 27 75
e 27 71
e 27 48
e 27 23
e 27 57
e 87 96
e 87 0
e 87 13
e 87 31
e 87 39
e 87 14
e 87 44
e 87 65
e 87 93
e 87 56
e 87 82
e 87 77
e 87 21
e 87 5
e 87 66
e 87 97
e 87 3
e 87 78
e 87 7
e 87 6
e 87 74
e 87 67
e 87 80
e 87 29
e 87 91
e 87 61
e 87 53
e 87 32
e 87 95
e 87 30
e 87 37
e 87 75
e 87 48
e 96 8
e 96 64
e 96 0
e 96 13
e 96 31
e 96 79
e 96 44
e 96 65
e 96 16
e 96 93
e 96 82
e 96 77
e 96 58
e 96 4
e 96 5
e 96 66
e 96 90
e 96 97
e 96 3
e 96 74
e 96 67
e 96 50
e 96 9
e 96 29
e 96 91
e 96 53
e 96 32
e 96 95
e 96 30
e 96 94
e 96 37
e 96 19
e 96 71
e 96 57
e 8 64
e 8 0
e 8 13
e 8 31
e 8 14
e 8 79
e 8 16
e 8 56
e 8 82
e 8 77
e 8 21
e 8 58
e 8 66
e 8 90
e 8 3
e 8 52
e 8 78
e 8 7
e 8 1
e 8 6
e 8 74
e 8 67
e 8 80
e 8 33
e 8 98
e 8 9
e 8 29
e 8 91
e 8 61
e 8 20
e 8 53
e 8 32
e 8 95
e 8 94
e 8 37
e 8 75
e 8 19
e 8 71
e 8 23
e 8 57
e 64 0
e 64 13
e 64 31
e 64 39
e 64 14
e 64 79
e 64 44
e 64 65
e 64 16
e 64 42
e 64 82
e 64 77
e 64 21
e 64 58
e 64 4
e 64 66
e 64 1
e 64 6
e 64 74
e 64 67
e 64 80
e 64 33
e 64 50
e 64 98
e 64 29
e 64 91
e 64 61
e 64 20
e 64 53
e 64 95
e 64 30
e 64 94
e 64 37
e 64 75
e 64 19
e 64 71
e 64 23
e 0 13
e 0 31
e 0 14
e 0 79
e 0 44
e 0 65
e 0 93
e 0 42
e 0 56
e 0 82
e 0 21
e 0 58
e 0 66
e 0 90
e 0 97
e 0 3
e 0 52
e 0 7
e 0 74
e 0 80
e 0 33
e 0 50
e 0 98
e 0 29
e 0 91
e 0 61
e 0 53
e 0 32
e 0 95
e 0 30
e 0 94
e 0 37
e 0 75
e 0 19
e 0 48
e 0 57
e 13 31
e 13 14
e 13 79
e 13 44
e 13 65
e 13 16
e 13 93
e 13 42
e 13 82
e 13 77
e 13 21
e 13 58
e 13 5
e 13 97
e 13 3
e 13 52
e 13 78
e 13 1
e 13 74
e 13 67
e 13 80
e 13 33
e 13 50
e 13 98
e 13 29
e 13 30
e 13 94
e 13 37
e 13 71
e 13 23
e 31 39
e 31 14
e 31 79
e 31 16
e 31 93
e 31 42
e 31 56
e 31 82
e 31 77
e 31 4
e 31 5
e 31 90
e 31 97
e 31 3
e 31 52
e 31 7
e 31 1
e 31 6
e 31 74
e 31 67
e 31 80
e 31 50
e 31 98
e 31 29
e 31 91
e 31 32
e 31 37
e 31 75
e 31 71
e 39 79
e 39 65
e 39 16
e 39 42
e 39 56
e 39 82
e 39 77
e 39 21
e 39 58
e 39 4
e 39 5
e 39 3
e 39 52
e 39 78
e 39 7
e 39 6
e 39 74
e 39 67
e 39 80
e 39 33
e 39 50
e 39 9
e 39 91
e 39 61
e 39 20
e 39 95
e 39 30
e 39 75
e 39 71
e 39 23
e 39 57
e 39 88
e 14 79
e 14 44
e 14 16
e 14 93
e 14 42
e 14 56
e 14 82
e 14 21
e 14 58
e 14 4
e 14 66
e 14 90
e 14 3
e 14 52
e 14 78
e 14 7
e 14 1
e 14 6
e 14 74
e 14 50
e 14 9
e 14 91
e 14 20
e 14 95
e 14 30
e 14 94
e 14 75
e 14 48
e 14 23
e 14 57
e 79 44
e 79 65
e 79 16
e 79 42
e 79 56
e 79 82
e 79 77
e 79 21
e 79 4
e 79 5
e 79 66
e 79 90
e 79 97
e 79 78
e 79 7
e 79 1
e 79 6
e 79 74
e 79 80
e 79 33
e 79 50
e 79 98
e 79 9
e 79 29
e 79 91
e 79 20
e 79 53
e 79 95
e 79 94
e 79 71
e 79 48
e 79 57
e 44 65
e 44 93
e 44 42
e 44 56
e 44 82
e 44 77
e 44 21
e 44 4
e 44 66
e 44 90
e 44 52
e 44 78
e 44 7
e 44 1
e 44 6
e 44 74
e 44 67
e 44 80
e 44 33
e 44 50
e 44 9
e 44 29
e 44 91
e 44 61
e 44 20
e 44 53
e 44 32
e 44 95
e 44 30
e 44 19
e 44 71
e 44 23
e 65 16
e 65 93
e 65 56
e 65 82
e 65 4
e 65 5
e 65 3
e 65 78
e 65 7
e 65 6
e 65 74
e 65 80
e 65 33
e 65 50
e 65 9
e 65 29
e 65 61
e 65 20
e 65 53
e 65 32
e 65 95
e 65 30
e 65 94
e 65 37
e 65 75
e 65 71
e 65 48
e 65 23
e 65 57
e 16 56
e 16 77
e 16 58
e 16 4
e 16 5
e 16 66
e 16 97
e 16 3
e 16 52
e 16 78
e 16 1
e 16 74
e 16 67
e 16 80
e 16 33
e 16 98
e 16 29
e 16 91
e 16 61
e 16 20
e 16 53
e 16 32
e 16 95
e 16 30
e 16 94
e 16 48
e 16 23
e 16 57
e 93 42
e 93 56
e 93 82
e 93 77
e 93 4
e 93 5
e 93 66
e 93 90
e 93 97
e 93 3
e 93 52
e 93 78
e 93 7
e 93 1
e 93 6
e 93 67
e 93 80
e 93 33
e 93 50
e 93 98
e 93 61
e 93 30
e 93 94
e 93 75
e 93 19
e 93 71
e 93 57
e 42 56
e 42 82
e 42 21
e 42 58
e 42 4
e 42 5
e 42 66
e 42 90
e 42 3
e 42 78
e 42 7
e 42 6
e 42 74
e 42 67
e 42 33
e 42 50
e 42 98
e 42 9
e 42 29
e 42 61
e 42 20
e 42 30
e 42 37
e 42 19
e 42 71
e 42 57
e 56 77
e 56 21
e 56 58
e 56 4
e 56 5
e 56 66
e 56 97
e 56 3
e 56 7
e 56 1
e 56 74
e 56 67
e 56 33
e 56 9
e 56 29
e 56 91
e 56 61
e 56 20
e 56 32
e 56 95
e 56 94
e 56 37
e 56 19
e 56 48
e 56 23
e 56 57
e 82 77
e 82 58
e 82 4
e 82 5
e 82 90
e 82 97
e 82 3
e 82 52
e 82 6
e 82 74
e 82 50
e 82 98
e 82 9
e 82 29
e 82 61
e 82 20
e 82 53
e 82 95
e 82 30
e 82 19
e 82 23
e 77 21
e 77 4
e 77 5
e 77 66
e 77 97
e 77 3
e 77 1
e 77 74
e 77 80
e 77 33
e 77 50
e 77 9
e 77 29
e 77 91
e 77 61
e 77 30
e 77 94
e 77 75
e 77 19
e 77 71
e 77 48
e 77 23
e 77 57
e 21 58
e 21 5
e 21 66
e 21 97
e 21 3
e 21 52
e 21 78
e 21 7
e 21 1
e 21 6
e 21 80
e 21 33
e 21 50
e 21 29
e 21 91
e 21 20
e 21 53
e 21 32
e 21 95
e 21 30
e 21 94
e 21 37
e 21 71
e 21 48
e 21 23
e 21 57
e 58 4
e 58 5
e 58 66
e 58 90
e 58 3
e 58 52
e 58 74
e 58 67
e 58 80
e 58 33
e 58 50
e 58 9
e 58 29
e 58 91
e 58 61
e 58 20
e 58 32
e 58 95
e 58 30
e 58 94
e 58 37
e 58 75
e 58 19
e 58 71
e 58 57
e 4 66
e 4 97
e 4 78
e 4 7
e 4 1
e 4 6
e 4 74
e 4 67
e 4 50
e 4 98
e 4 29
e 4 91
e 4 61
e 4 20
e 4 53
e 4 32
e 4 95
e 4 30
e 4 37
e 4 75
e 4 19
e 4 71
e 4 23
e 4 57
e 5 66
e 5 90
e 5 97
e 5 3
e 5 52
e 5 78
e 5 7
e 5 1
e 5 6
e 5 80
e 5 33
e 5 98
e 5 9
e 5 29
e 5 91
e 5 53
e 5 32
e 5 95
e 5 30
e 5 94
e 5 37
e 5 75
e 5 19
e 5 23
e 66 97
e 66 52
e 66 78
e 66 1
e 66 6
e 66 74
e 66 67
e 66 80
e 66 33
e 66 50
e 66 98
e 66 9
e 66 91
e 66 61
e 66 53
e 66 32
e 66 37
e 66 75
e 66 19
e 66 48
e 66 57
e 90 97
e 90 3
e 90 52
e 90 78
e 90 7
e 90 1
e 90 6
e 90 74
e 90 50
e 90 98
e 90 29
e 90 91
e 90 61
e 90 53
e 90 30
e 90 37
e 90 71
e 90 23
e 97 3
e 97 78
e 97 7
e 97 1
e 97 6
e 97 67
e 97 33
e 97 50
e 97 98
e 97 9
e 97 29
e 97 61
e 97 20
e 97 32
e 97 95
e 97 30
e 97 94
e 97 71
e 97 48
e 97 23
e 3 52
e 3 78
e 3 7
e 3 6
e 3 74
e 3 67
e 3 50
e 3 98
e 3 29
e 3 91
e 3 61
e 3 32
e 3 95
e 3 37
e 3 75
e 3 19
e 3 48
e 3 23
e 3 57
e 52 78
e 52 7
e 52 1
e 52 6
e 52 74
e 52 67
e 52 98
e 52 9
e 52 29
e 52 61
e 52 20
e 52 53
e 52 32
e 52 30
e 52 19
e 52 57
e 78 7
e 78 1
e 78 74
e 78 80
e 78 33
e 78 98
e 78 9
e 78 61
e 78 53
e 78 32
e 78 95
e 78 30
e 78 94
e 78 37
e 78 75
e 78 23
e 78 57
e 7 1
e 7 6
e 7 74
e 7 67
e 7 33
e 7 50
e 7 9
e 7 29
e 7 91
e 7 61
e 7 20
e 7 53
e 7 30
e 7 37
e 7 75
e 7 19
e 7 71
e 7 48
e 7 57
e 1 6
e 1 67
e 1 80
e 1 33
e 1 50
e 1 9
e 1 29
e 1 91
e 1 61
e 1 20
e 1 53
e 1 95
e 1 30
e 1 94
e 1 37
e 1 71
e 1 23
e 1 57
e 6 74
e 6 80
e 6 33
e 6 98
e 6 29
e 6 20
e 6 53
e 6 32
e 6 95
e 6 30
e 6 94
e 6 37
e 6 75
e 6 19
e 6 71
e 6 57
e 74 80
e 74 33
e 74 50
e 74 98
e 74 9
e 74 29
e 74 91
e 74 61
e 74 20
e 74 32
e 74 95
e 74 30
e 74 94
e 74 37
e 74 75
e 74 19
e 74 48
e 74 23
e 67 33
e 67 50
e 67 98
e 67 91
e 67 61
e 67 20
e 67 95
e 67 30
e 67 94
e 67 75
e 67 19
e 67 48
e 67 23
e 67 57
e 80 33
e 80 98
e 80 91
e 80 20
e 80 53
e 80 32
e 80 30
e 80 37
e 80 19
e 80 71
e 80 23
e 80 57
e 33 50
e 33 98
e 33 61
e 33 20
e 33 53
e 33 32
e 33 95
e 33 94
e 33 37
e 33 71
e 33 48
e 33 23
e 33 57
e 50 98
e 50 9
e 50 29
e 50 61
e 50 32
e 50 30
e 50 37
e 50 75
e 50 71
e 50 23
e 98 9
e 98 91
e 98 61
e 98 95
e 98 30
e 98 75
e 98 19
e 98 71
e 98 48
e 98 23
e 98 57
e 9 91
e 9 20
e 9 53
e 9 94
e 9 37
e 9 75
e 9 71
e 9 48
e 9 23
e 9 57
e 29 91
e 29 53
e 29 32
e 29 95
e 29 30
e 29 94
e 29 37
e 29 75
e 29 71
e 29 48
e 29 23
e 91 20
e 91 53
e 91 30
e 91 94
e 91 75
e 91 19
e 91 71
e 91 48
e 91 23
e 61 20
e 61 30
e 61 37
e 61 75
e 61 71
e 61 48
e 61 23
e 61 57
e 20 53
e 20 32
e 20 95
e 20 30
e 20 75
e 20 19
e 20 71
e 20 23
e 20 57
e 53 95
e 53 94
e 53 37
e 53 75
e 53 19
e 53 71
e 53 48
e 53 23
e 53 57
e 32 95
e 32 30
e 32 94
e 32 37
e 32 75
e 32 19
e 32 48
e 32 23
e 95 30
e 95 94
e 95 75
e 95 19
e 95 71
e 95 23
e 95 57
e 30 94
e 30 37
e 30 19
e 30 71
e 30 23
e 94 37
e 94 71
e 94 48
e 94 23
e 94 57
e 37 75
e 37 19
e 37 71
e 37 23
e 75 48
e 75 23
e 75 57
e 19 71
e 19 57
e 71 48
e 71 23
e 71 57
e 48 23
e 48 57
